
(set-logic ALL) 

(declare-datatype MyList ((Nil) (Cons (head Real) (tail MyList)) )) 
(declare-fun l0 () MyList) 
(declare-fun l1 () MyList) 
(declare-fun l2 () MyList) 
(declare-fun l3 () MyList) 
(declare-fun i0 () Real) 
(declare-fun i1 () Real) 
(assert (= l1 l0) )
(assert (not (= l3 l1)) )
(assert (is-Nil Nil) )
(assert (and (is-Cons l2) (= l3 Nil)) )
(assert (and (= l0 l2) (= l1 Nil) (is-Nil Nil) (= l2 Nil)) )
(assert (is-Nil Nil) )
(assert (or (= l2 l3) (is-Cons l1) (is-Nil l2)) )
(assert (and (= l2 Nil) (= l1 Nil) (= l3 Nil)) )
(check-sat)
